14,6	0,0	19,4	6,6	0,0	0,0	0,0	0,0	0,0	5,9
7,4	19,7	0,0	15,9	12,3	0,0	0,0	9,6	0,0	0,0
0,0	0,0	18,8	0,0	8,8	17,3	0,0	0,0	17,3	0,0
18,0	0,0	17,1	0,0	0,0	0,0	16,3	0,0	0,0	0,0
0,0	11,8	0,0	5,9	11,2	0,0	0,0	13,9	0,0	0,0
0,0	14,0	19,2	0,0	14,0	7,3	0,0	0,0	13,6	0,0
0,0	12,6	0,0	6,5	0,0	0,0	11,0	0,0	0,0	18,9
14,6	0,0	9,0	0,0	0,0	0,0	0,0	0,0	0,0	10,4
0,0	9,5	0,0	8,1	19,0	0,0	0,0	18,4	0,0	0,0
0,0	0,0	14,8	0,0	0,0	12,2	11,9	0,0	0,0	13,1
									
3,9	2,7	3,3	4,3	4,9	3,6	3,1	3,5	4,7	4,8
